0 4295
2401 4196
4802 4071
7203 4001
9604 3936
12005 3897
14406 3861
16807 3828
19208 3795
21609 3768
24010 3751
26411 3731
28812 3722
31213 3706
33614 3678
36015 3668
38416 3649
40817 3635
43218 3629
45619 3623
48020 3602
50421 3601
